NAME
ROWS
 N  OBJ
 G  c1
 G  c2
 G  c3
 G  c4
 G  c5
 G  c6
 G  c7
 G  c8
 G  c9
 G  c10
 G  c11
 G  c12
 G  c13
 G  c14
 G  c15
 G  c16
 G  c17
 G  c18
 G  c19
 G  c20
 G  c21
 G  c22
 G  c23
 G  c24
 G  c25
 G  c26
 G  c27
 G  c28
 G  c29
 G  c30
 G  c31
 G  c32
 G  c33
 G  c34
 G  c35
 G  c36
 G  c37
 G  c38
 G  c39
 G  c40
 G  c41
 G  c42
 G  c43
 G  c44
 G  c45
 G  c46
 G  c47
 G  c48
 G  c49
 G  c50
 G  c51
 G  c52
 G  c53
 G  c54
 G  c55
 G  c56
 G  c57
 G  c58
 G  c59
 G  c60
COLUMNS
    MARKER    'MARKER'                 'INTORG'
    x[1]      c1        1
    x[1]      c3        1
    x[1]      c18       1
    x[1]      c21       1
    x[1]      c33       1
    x[1]      c44       1
    x[1]      c48       1
    x[1]      c50       1
    x[1]      OBJ       1
    x[2]      c2        1
    x[2]      c14       1
    x[2]      c24       1
    x[2]      c28       1
    x[2]      c45       1
    x[2]      OBJ       1
    x[3]      c1        1
    x[3]      c3        1
    x[3]      c5        1
    x[3]      c10       1
    x[3]      c23       1
    x[3]      c27       1
    x[3]      c38       1
    x[3]      c50       1
    x[3]      OBJ       1
    x[4]      c4        1
    x[4]      c11       1
    x[4]      c32       1
    x[4]      c37       1
    x[4]      c54       1
    x[4]      OBJ       1
    x[5]      c3        1
    x[5]      c5        1
    x[5]      c6        1
    x[5]      c27       1
    x[5]      c31       1
    x[5]      c36       1
    x[5]      c42       1
    x[5]      c50       1
    x[5]      c53       1
    x[5]      c54       1
    x[5]      OBJ       1
    x[6]      c5        1
    x[6]      c6        1
    x[6]      c9        1
    x[6]      c11       1
    x[6]      c14       1
    x[6]      c28       1
    x[6]      c40       1
    x[6]      c42       1
    x[6]      c50       1
    x[6]      c53       1
    x[6]      c56       1
    x[6]      OBJ       1
    x[7]      c7        1
    x[7]      c8        1
    x[7]      c15       1
    x[7]      c17       1
    x[7]      c52       1
    x[7]      OBJ       1
    x[8]      c7        1
    x[8]      c8        1
    x[8]      c20       1
    x[8]      c28       1
    x[8]      c31       1
    x[8]      c32       1
    x[8]      c42       1
    x[8]      c53       1
    x[8]      c55       1
    x[8]      OBJ       1
    x[9]      c6        1
    x[9]      c9        1
    x[9]      c17       1
    x[9]      c23       1
    x[9]      c25       1
    x[9]      c31       1
    x[9]      c45       1
    x[9]      OBJ       1
    x[10]     c3        1
    x[10]     c10       1
    x[10]     c15       1
    x[10]     c23       1
    x[10]     c46       1
    x[10]     OBJ       1
    x[11]     c4        1
    x[11]     c6        1
    x[11]     c11       1
    x[11]     c28       1
    x[11]     c29       1
    x[11]     c37       1
    x[11]     c49       1
    x[11]     c51       1
    x[11]     c57       1
    x[11]     OBJ       1
    x[12]     c12       1
    x[12]     c14       1
    x[12]     c19       1
    x[12]     c24       1
    x[12]     c36       1
    x[12]     c52       1
    x[12]     c60       1
    x[12]     OBJ       1
    x[13]     c13       1
    x[13]     c14       1
    x[13]     c17       1
    x[13]     c48       1
    x[13]     c49       1
    x[13]     OBJ       1
    x[14]     c2        1
    x[14]     c6        1
    x[14]     c12       1
    x[14]     c13       1
    x[14]     c14       1
    x[14]     c24       1
    x[14]     c27       1
    x[14]     c32       1
    x[14]     c34       1
    x[14]     c55       1
    x[14]     c56       1
    x[14]     OBJ       1
    x[15]     c7        1
    x[15]     c10       1
    x[15]     c15       1
    x[15]     c44       1
    x[15]     c48       1
    x[15]     OBJ       1
    x[16]     c16       1
    x[16]     c21       1
    x[16]     c26       1
    x[16]     c35       1
    x[16]     c46       1
    x[16]     c57       1
    x[16]     c60       1
    x[16]     OBJ       1
    x[17]     c7        1
    x[17]     c9        1
    x[17]     c13       1
    x[17]     c17       1
    x[17]     c28       1
    x[17]     c45       1
    x[17]     c47       1
    x[17]     c50       1
    x[17]     c57       1
    x[17]     OBJ       1
    x[18]     c1        1
    x[18]     c18       1
    x[18]     c21       1
    x[18]     c23       1
    x[18]     c41       1
    x[18]     c44       1
    x[18]     OBJ       1
    x[19]     c12       1
    x[19]     c19       1
    x[19]     c25       1
    x[19]     c55       1
    x[19]     OBJ       1
    x[20]     c8        1
    x[20]     c20       1
    x[20]     c21       1
    x[20]     c33       1
    x[20]     c34       1
    x[20]     c54       1
    x[20]     OBJ       1
    x[21]     c1        1
    x[21]     c16       1
    x[21]     c18       1
    x[21]     c20       1
    x[21]     c21       1
    x[21]     c27       1
    x[21]     c33       1
    x[21]     c35       1
    x[21]     c53       1
    x[21]     c56       1
    x[21]     OBJ       1
    x[22]     c22       1
    x[22]     c43       1
    x[22]     c55       1
    x[22]     c57       1
    x[22]     OBJ       1
    x[23]     c3        1
    x[23]     c9        1
    x[23]     c10       1
    x[23]     c18       1
    x[23]     c23       1
    x[23]     c26       1
    x[23]     c31       1
    x[23]     c60       1
    x[23]     OBJ       1
    x[24]     c2        1
    x[24]     c12       1
    x[24]     c14       1
    x[24]     c24       1
    x[24]     c30       1
    x[24]     c32       1
    x[24]     c36       1
    x[24]     c48       1
    x[24]     OBJ       1
    x[25]     c9        1
    x[25]     c19       1
    x[25]     c25       1
    x[25]     c29       1
    x[25]     c35       1
    x[25]     OBJ       1
    x[26]     c16       1
    x[26]     c23       1
    x[26]     c26       1
    x[26]     c32       1
    x[26]     c53       1
    x[26]     c58       1
    x[26]     c60       1
    x[26]     OBJ       1
    x[27]     c3        1
    x[27]     c5        1
    x[27]     c14       1
    x[27]     c21       1
    x[27]     c27       1
    x[27]     c31       1
    x[27]     c45       1
    x[27]     OBJ       1
    x[28]     c2        1
    x[28]     c6        1
    x[28]     c8        1
    x[28]     c11       1
    x[28]     c17       1
    x[28]     c28       1
    x[28]     c36       1
    x[28]     c40       1
    x[28]     c42       1
    x[28]     c56       1
    x[28]     c58       1
    x[28]     OBJ       1
    x[29]     c11       1
    x[29]     c25       1
    x[29]     c29       1
    x[29]     c40       1
    x[29]     c49       1
    x[29]     OBJ       1
    x[30]     c24       1
    x[30]     c30       1
    x[30]     c35       1
    x[30]     c57       1
    x[30]     OBJ       1
    x[31]     c5        1
    x[31]     c8        1
    x[31]     c9        1
    x[31]     c23       1
    x[31]     c27       1
    x[31]     c31       1
    x[31]     c45       1
    x[31]     c50       1
    x[31]     c57       1
    x[31]     c59       1
    x[31]     OBJ       1
    x[32]     c4        1
    x[32]     c8        1
    x[32]     c14       1
    x[32]     c24       1
    x[32]     c26       1
    x[32]     c32       1
    x[32]     c39       1
    x[32]     c46       1
    x[32]     c50       1
    x[32]     c60       1
    x[32]     OBJ       1
    x[33]     c1        1
    x[33]     c20       1
    x[33]     c21       1
    x[33]     c33       1
    x[33]     c36       1
    x[33]     c44       1
    x[33]     OBJ       1
    x[34]     c14       1
    x[34]     c20       1
    x[34]     c34       1
    x[34]     c37       1
    x[34]     c43       1
    x[34]     c44       1
    x[34]     c45       1
    x[34]     c56       1
    x[34]     OBJ       1
    x[35]     c16       1
    x[35]     c21       1
    x[35]     c25       1
    x[35]     c30       1
    x[35]     c35       1
    x[35]     c46       1
    x[35]     c48       1
    x[35]     c51       1
    x[35]     OBJ       1
    x[36]     c5        1
    x[36]     c12       1
    x[36]     c24       1
    x[36]     c28       1
    x[36]     c33       1
    x[36]     c36       1
    x[36]     c44       1
    x[36]     c46       1
    x[36]     c59       1
    x[36]     OBJ       1
    x[37]     c4        1
    x[37]     c11       1
    x[37]     c34       1
    x[37]     c37       1
    x[37]     c55       1
    x[37]     OBJ       1
    x[38]     c3        1
    x[38]     c38       1
    x[38]     c42       1
    x[38]     c44       1
    x[38]     c56       1
    x[38]     c59       1
    x[38]     OBJ       1
    x[39]     c32       1
    x[39]     c39       1
    x[39]     c48       1
    x[39]     OBJ       1
    x[40]     c6        1
    x[40]     c28       1
    x[40]     c29       1
    x[40]     c40       1
    x[40]     c41       1
    x[40]     c45       1
    x[40]     c52       1
    x[40]     c58       1
    x[40]     OBJ       1
    x[41]     c18       1
    x[41]     c40       1
    x[41]     c41       1
    x[41]     c56       1
    x[41]     OBJ       1
    x[42]     c5        1
    x[42]     c6        1
    x[42]     c8        1
    x[42]     c28       1
    x[42]     c38       1
    x[42]     c42       1
    x[42]     c47       1
    x[42]     c55       1
    x[42]     c57       1
    x[42]     OBJ       1
    x[43]     c22       1
    x[43]     c34       1
    x[43]     c43       1
    x[43]     c51       1
    x[43]     OBJ       1
    x[44]     c1        1
    x[44]     c15       1
    x[44]     c18       1
    x[44]     c33       1
    x[44]     c34       1
    x[44]     c36       1
    x[44]     c38       1
    x[44]     c44       1
    x[44]     OBJ       1
    x[45]     c2        1
    x[45]     c9        1
    x[45]     c17       1
    x[45]     c27       1
    x[45]     c31       1
    x[45]     c34       1
    x[45]     c40       1
    x[45]     c45       1
    x[45]     c50       1
    x[45]     OBJ       1
    x[46]     c10       1
    x[46]     c16       1
    x[46]     c32       1
    x[46]     c35       1
    x[46]     c36       1
    x[46]     c46       1
    x[46]     c50       1
    x[46]     c51       1
    x[46]     OBJ       1
    x[47]     c17       1
    x[47]     c42       1
    x[47]     c47       1
    x[47]     c56       1
    x[47]     c59       1
    x[47]     OBJ       1
    x[48]     c1        1
    x[48]     c13       1
    x[48]     c15       1
    x[48]     c24       1
    x[48]     c35       1
    x[48]     c39       1
    x[48]     c48       1
    x[48]     OBJ       1
    x[49]     c11       1
    x[49]     c13       1
    x[49]     c29       1
    x[49]     c49       1
    x[49]     OBJ       1
    x[50]     c1        1
    x[50]     c3        1
    x[50]     c5        1
    x[50]     c6        1
    x[50]     c17       1
    x[50]     c31       1
    x[50]     c32       1
    x[50]     c45       1
    x[50]     c46       1
    x[50]     c50       1
    x[50]     OBJ       1
    x[51]     c11       1
    x[51]     c35       1
    x[51]     c43       1
    x[51]     c46       1
    x[51]     c51       1
    x[51]     c54       1
    x[51]     OBJ       1
    x[52]     c7        1
    x[52]     c12       1
    x[52]     c40       1
    x[52]     c52       1
    x[52]     OBJ       1
    x[53]     c5        1
    x[53]     c6        1
    x[53]     c8        1
    x[53]     c21       1
    x[53]     c26       1
    x[53]     c53       1
    x[53]     OBJ       1
    x[54]     c4        1
    x[54]     c5        1
    x[54]     c20       1
    x[54]     c51       1
    x[54]     c54       1
    x[54]     OBJ       1
    x[55]     c8        1
    x[55]     c14       1
    x[55]     c19       1
    x[55]     c22       1
    x[55]     c37       1
    x[55]     c42       1
    x[55]     c55       1
    x[55]     c57       1
    x[55]     OBJ       1
    x[56]     c6        1
    x[56]     c14       1
    x[56]     c21       1
    x[56]     c28       1
    x[56]     c34       1
    x[56]     c38       1
    x[56]     c41       1
    x[56]     c47       1
    x[56]     c56       1
    x[56]     OBJ       1
    x[57]     c11       1
    x[57]     c16       1
    x[57]     c17       1
    x[57]     c22       1
    x[57]     c30       1
    x[57]     c31       1
    x[57]     c42       1
    x[57]     c55       1
    x[57]     c57       1
    x[57]     OBJ       1
    x[58]     c26       1
    x[58]     c28       1
    x[58]     c40       1
    x[58]     c58       1
    x[58]     OBJ       1
    x[59]     c31       1
    x[59]     c36       1
    x[59]     c38       1
    x[59]     c47       1
    x[59]     c59       1
    x[59]     OBJ       1
    x[60]     c12       1
    x[60]     c16       1
    x[60]     c23       1
    x[60]     c26       1
    x[60]     c32       1
    x[60]     c60       1
    x[60]     OBJ       1
    MARKER    'MARKER'                 'INTEND'
RHS
    rhs       c1        1
    rhs       c2        1
    rhs       c3        1
    rhs       c4        1
    rhs       c5        1
    rhs       c6        1
    rhs       c7        1
    rhs       c8        1
    rhs       c9        1
    rhs       c10       1
    rhs       c11       1
    rhs       c12       1
    rhs       c13       1
    rhs       c14       1
    rhs       c15       1
    rhs       c16       1
    rhs       c17       1
    rhs       c18       1
    rhs       c19       1
    rhs       c20       1
    rhs       c21       1
    rhs       c22       1
    rhs       c23       1
    rhs       c24       1
    rhs       c25       1
    rhs       c26       1
    rhs       c27       1
    rhs       c28       1
    rhs       c29       1
    rhs       c30       1
    rhs       c31       1
    rhs       c32       1
    rhs       c33       1
    rhs       c34       1
    rhs       c35       1
    rhs       c36       1
    rhs       c37       1
    rhs       c38       1
    rhs       c39       1
    rhs       c40       1
    rhs       c41       1
    rhs       c42       1
    rhs       c43       1
    rhs       c44       1
    rhs       c45       1
    rhs       c46       1
    rhs       c47       1
    rhs       c48       1
    rhs       c49       1
    rhs       c50       1
    rhs       c51       1
    rhs       c52       1
    rhs       c53       1
    rhs       c54       1
    rhs       c55       1
    rhs       c56       1
    rhs       c57       1
    rhs       c58       1
    rhs       c59       1
    rhs       c60       1
RANGES
BOUNDS
 BV bounds    x[1]
 BV bounds    x[2]
 BV bounds    x[3]
 BV bounds    x[4]
 BV bounds    x[5]
 BV bounds    x[6]
 BV bounds    x[7]
 BV bounds    x[8]
 BV bounds    x[9]
 BV bounds    x[10]
 BV bounds    x[11]
 BV bounds    x[12]
 BV bounds    x[13]
 BV bounds    x[14]
 BV bounds    x[15]
 BV bounds    x[16]
 BV bounds    x[17]
 BV bounds    x[18]
 BV bounds    x[19]
 BV bounds    x[20]
 BV bounds    x[21]
 BV bounds    x[22]
 BV bounds    x[23]
 BV bounds    x[24]
 BV bounds    x[25]
 BV bounds    x[26]
 BV bounds    x[27]
 BV bounds    x[28]
 BV bounds    x[29]
 BV bounds    x[30]
 BV bounds    x[31]
 BV bounds    x[32]
 BV bounds    x[33]
 BV bounds    x[34]
 BV bounds    x[35]
 BV bounds    x[36]
 BV bounds    x[37]
 BV bounds    x[38]
 BV bounds    x[39]
 BV bounds    x[40]
 BV bounds    x[41]
 BV bounds    x[42]
 BV bounds    x[43]
 BV bounds    x[44]
 BV bounds    x[45]
 BV bounds    x[46]
 BV bounds    x[47]
 BV bounds    x[48]
 BV bounds    x[49]
 BV bounds    x[50]
 BV bounds    x[51]
 BV bounds    x[52]
 BV bounds    x[53]
 BV bounds    x[54]
 BV bounds    x[55]
 BV bounds    x[56]
 BV bounds    x[57]
 BV bounds    x[58]
 BV bounds    x[59]
 BV bounds    x[60]
ENDATA
